Molecule1                               
   1.00000000000000     
     7.8200001717000003    0.0000000000000000    0.0000000000000000
     0.0000000000000000    7.8214998245000000    0.0000000000000000
     0.0000000000000000    0.0000000000000000    7.8228998183999998
   O    H 
    16    32
Direct
  0.0847633592437497  0.4850360945016208  0.8797399921588001
  0.4124313450786785  0.4321539393552424  0.7818740136893499
  0.3428393735125432  0.2778430863223609  0.4623489519683024
  0.7214714657724995  0.9426654454788765  0.2455445019995690
  0.2052618806849339  0.9705387885226733  0.6236775984475064
  0.6206775729701801  0.0875719139295540  0.5797694979749061
  0.8395742087093853  0.4146370629882184  0.3408328280143359
  0.2838691895004642  0.8203077285538402  0.3144917589901485
  0.9516213834575521  0.7521950083999723  0.7390795633065042
  0.2615239462643157  0.0567001686365742  0.0432107472811328
  0.5671790565480942  0.2558378437088571  0.0525824400596732
  0.1546086965405024  0.4593659201134445  0.2455930875514731
  0.9586591448297440  0.9281731085463668  0.0067917481981535
  0.6042027277373520  0.6649034273998713  0.3576994086227830
  0.8321414494367321  0.2137626898490693  0.8442148788994275
  0.6172444618098246  0.6969458966630349  0.7107492298609205
  0.0270486221134230  0.5880439841275795  0.8205977604772889
  0.0017142789211639  0.3975235013720190  0.8786711275483582
  0.2883331920249882  0.4523312108797169  0.8272964099170520
  0.3773901624393826  0.3869909213793390  0.6635169160486416
  0.2783449448418863  0.3293597262904100  0.3584611529315382
  0.2883841212239157  0.1662229223085349  0.4885270732495880
  0.7093800140312501  0.9999441756280854  0.3569980577626091
  0.7035850191782146  0.8210636115038582  0.2738041743769588
  0.1109796041475963  0.8926773248757872  0.6636177961005134
  0.2718342480003412  0.9868307254378945  0.7266103950760402
  0.6914075561281017  0.1473120477184959  0.6713824323138772
  0.5427106103717356  0.1690610126806995  0.5252188244426597
  0.7606796674729489  0.5168981728765373  0.3264050536100302
  0.8194370867229986  0.3743970436295729  0.4603325875005252
  0.2585088792923067  0.8392401006276862  0.4422362875152396
  0.2159270006646820  0.7126472726200421  0.2942335832933495
  0.9542666670701250  0.8271159487090499  0.8463337458335256
  0.8337676711390752  0.7215890749813564  0.7115092028765638
  0.3727392774643213  0.1095529027367077  0.0160826723418028
  0.2934907033414551  0.9618332521220800  0.1173173079963062
  0.5113679769471422  0.3442794712310115  0.9812540547149750
  0.5955424643036873  0.3166231400617097  0.1619546552186496
  0.0333339899750964  0.4461906566745026  0.2877488148472286
  0.1358866668785751  0.4761429317286840  0.1239059338476654
  0.0685855814040278  0.9927689090656981  0.0116170164848766
  0.8692645457149768  0.9451529480428761  0.1071150701574065
  0.4820901313984927  0.7083473331080562  0.3260499089117952
  0.6013622432590336  0.6794394221337070  0.4816009847327488
  0.7358892859274274  0.2308061585022983  0.9272814990934186
  0.8642365398920820  0.0938935363033903  0.8811965511328987
  0.5403214709109393  0.7933069832037939  0.6860570345627983
  0.5389496972538742  0.6050944989254389  0.7516311677152231
 
  0.49538924E-04  0.31548989E-02  0.43191809E-02
 -0.16239662E-02 -0.86411718E-02  0.82372019E-02
 -0.44830948E-03 -0.72103684E-02  0.42977847E-02
 -0.10983657E-02  0.51394794E-02 -0.92784925E-02
 -0.55921574E-02 -0.19927305E-02  0.13054457E-02
  0.75659603E-02  0.31149479E-03  0.67908472E-03
  0.43919794E-02  0.68392157E-02  0.31830011E-02
 -0.88575084E-02 -0.14116294E-02 -0.69443545E-04
  0.72811927E-02 -0.31944947E-02  0.38124796E-02
  0.71216655E-02 -0.13989289E-02 -0.53306001E-03
 -0.22949282E-02 -0.63774027E-02 -0.69399213E-02
  0.48040079E-02 -0.34077488E-02 -0.83858473E-02
  0.14340760E-02  0.50761942E-03  0.20366062E-02
 -0.45224720E-02  0.84774583E-02 -0.39155336E-03
  0.94768816E-03  0.52366245E-02  0.42416428E-02
 -0.61143353E-02  0.51304233E-02  0.15771264E-02
  0.34060621E-02 -0.12883634E-01 -0.71149028E-02
 -0.60098476E-02 -0.29252374E-01  0.12979387E-01
 -0.11328635E-01 -0.18475571E-01  0.63071961E-02
  0.73142144E-02  0.17717856E-01  0.51110055E-02
  0.14575935E-01 -0.36108745E-02  0.95288563E-02
  0.53803795E-02  0.29136511E-02  0.45582620E-03
 -0.74462108E-02  0.16889189E-03  0.47467703E-03
 -0.23405588E-01 -0.66511227E-02 -0.12107695E-01
 -0.23620656E-02  0.16625018E-02 -0.31991945E-01
  0.32663955E-02  0.25610378E-01  0.63625520E-03
 -0.25512887E-01 -0.21259071E-02 -0.27325034E-01
  0.17752728E-01  0.37844689E-02  0.22302474E-02
  0.12057577E-01 -0.96650141E-02 -0.15626329E-01
  0.77588164E-02 -0.19534700E-01  0.29138343E-02
 -0.11557343E-01 -0.68290567E-02 -0.92509530E-02
 -0.82882176E-02  0.20040531E-01 -0.94529449E-02
 -0.15150081E-01  0.21269954E-02 -0.10102264E-01
  0.73720739E-02  0.25478169E-01  0.95762174E-02
  0.21902460E-01 -0.16739228E-01 -0.29065190E-01
  0.21319285E-02 -0.31785212E-02 -0.11894093E-01
  0.28387304E-02 -0.12046802E-01  0.91067174E-02
 -0.77955350E-02  0.70490389E-02  0.31580442E-02
 -0.19127565E-01 -0.32063510E-02 -0.10218286E-01
 -0.16782158E-01  0.81971686E-02 -0.15234967E-01
 -0.46479596E-02 -0.14738316E-01  0.96318856E-02
  0.63472879E-02 -0.14057171E-01  0.36890051E-02
 -0.25755332E-02 -0.11537004E-01  0.12814025E-01
  0.69699543E-02 -0.54420765E-03 -0.28846049E-02
  0.44439037E-02  0.20312062E-01  0.17432172E-01
  0.71116360E-02 -0.77087275E-02 -0.29059225E-01
 -0.10382583E-01  0.26714588E-01 -0.71115936E-02
 -0.69629337E-02  0.12404458E-01 -0.70651014E-02
 
           1
   1.00000000000000     
  0.10000000E+01  0.00000000E+00  0.00000000E+00  0.00000000E+00
  0.84769694E-01  0.48543946E+00  0.88029211E+00
  0.41222368E+00  0.43104914E+00  0.78292697E+00
  0.34278204E+00  0.27692122E+00  0.46289834E+00
  0.72133101E+00  0.94332254E+00  0.24435843E+00
  0.20454677E+00  0.97028401E+00  0.62384447E+00
  0.62164509E+00  0.87611739E-01  0.57985631E+00
  0.84013584E+00  0.41551148E+00  0.34123971E+00
  0.28273652E+00  0.82012725E+00  0.31448288E+00
  0.95255248E+00  0.75178658E+00  0.73956691E+00
  0.26243465E+00  0.56521312E-01  0.43142606E-01
  0.56688559E+00  0.25502248E+00  0.51695311E-01
  0.15522302E+00  0.45893023E+00  0.24452113E+00
  0.95884253E+00  0.92823801E+00  0.70520872E-02
  0.60362441E+00  0.66598729E+00  0.35764936E+00
  0.83226264E+00  0.21443221E+00  0.84475709E+00
  0.61646258E+00  0.69760184E+00  0.71095083E+00
  0.27484180E-01  0.58639678E+00  0.81968826E+00
  0.94575622E-03  0.39378351E+00  0.88033028E+00
  0.28688452E+00  0.44996906E+00  0.82810266E+00
  0.37832548E+00  0.38925620E+00  0.66417026E+00
  0.28020888E+00  0.32889807E+00  0.35967923E+00
  0.28907215E+00  0.16659544E+00  0.48858534E+00
  0.70842781E+00  0.99996577E+00  0.35705874E+00
  0.70059198E+00  0.82021325E+00  0.27225645E+00
  0.11067755E+00  0.89288988E+00  0.65952827E+00
  0.27225195E+00  0.99010508E+00  0.72669173E+00
  0.68814504E+00  0.14704024E+00  0.66788948E+00
  0.54498078E+00  0.16954487E+00  0.52550392E+00
  0.76222156E+00  0.51566247E+00  0.32440754E+00
  0.82042926E+00  0.37189948E+00  0.46070506E+00
  0.25703096E+00  0.83836699E+00  0.44105374E+00
  0.21486713E+00  0.71520951E+00  0.29302521E+00
  0.95232932E+00  0.82738789E+00  0.84504238E+00
  0.83471039E+00  0.72484653E+00  0.71273333E+00
  0.37554010E+00  0.10741275E+00  0.12367274E-01
  0.29376333E+00  0.96142687E+00  0.11579689E+00
  0.51173099E+00  0.34273925E+00  0.98241816E+00
  0.59454559E+00  0.31752438E+00  0.16235835E+00
  0.30888010E-01  0.44578072E+00  0.28644261E+00
  0.13374061E+00  0.47719096E+00  0.12195845E+00
  0.67991213E-01  0.99088458E+00  0.12848259E-01
  0.87007622E+00  0.94335570E+00  0.10758664E+00
  0.48176078E+00  0.70687230E+00  0.32768792E+00
  0.60225354E+00  0.67936984E+00  0.48123225E+00
  0.73645756E+00  0.23340311E+00  0.92950985E+00
  0.86514596E+00  0.92907955E-01  0.87748192E+00
  0.53899377E+00  0.79672252E+00  0.68514796E+00
  0.53805930E+00  0.60668044E+00  0.75072804E+00
 -0.44380023E-04  0.33636331E-03  0.54523301E-03
 -0.13659792E-03 -0.11038847E-02  0.10736985E-02
 -0.39226115E-04 -0.91770829E-03  0.56990079E-03
 -0.16304365E-03  0.63153373E-03 -0.11661015E-02
 -0.70193518E-03 -0.22910508E-03  0.16826992E-03
  0.93871548E-03  0.45437708E-04  0.69953579E-04
  0.59661308E-03  0.86468224E-03  0.37559270E-03
 -0.11112484E-02 -0.12220476E-03 -0.59888565E-04
  0.88084121E-03 -0.40740925E-03  0.50110920E-03
  0.88892022E-03 -0.17881113E-03 -0.44236100E-04
 -0.29262352E-03 -0.85500428E-03 -0.92127416E-03
  0.61449606E-03 -0.45512171E-03 -0.10914019E-02
  0.22121153E-03  0.58456869E-04  0.24813948E-03
 -0.50836993E-03  0.10881774E-02 -0.18946293E-04
  0.13336616E-03  0.70027059E-03  0.54107909E-03
 -0.75884313E-03  0.63541045E-03  0.21832156E-03
  0.18029553E-03 -0.14952842E-02 -0.10316595E-02
  0.70512160E-04 -0.25607460E-02  0.17475275E-02
 -0.19871166E-02 -0.23639292E-02  0.92635602E-03
  0.50468514E-03  0.22133485E-02  0.22602452E-03
  0.15971147E-02 -0.27846807E-03  0.63863553E-03
  0.76089650E-03  0.56889274E-04  0.14212159E-03
 -0.10222644E-02 -0.10200020E-03  0.40770664E-04
 -0.28336967E-02 -0.77539010E-03 -0.16761618E-02
 -0.22371429E-03  0.70454312E-04 -0.38057158E-02
  0.19658377E-03  0.31333919E-02 -0.17807019E-03
 -0.30000112E-02 -0.82001212E-04 -0.30980199E-02
  0.23554921E-02  0.27437586E-03  0.23184391E-03
  0.13455181E-02 -0.78016596E-03 -0.21993762E-02
  0.88300400E-03 -0.26635838E-02  0.99629989E-03
 -0.17153658E-02 -0.12371803E-02 -0.37906782E-03
 -0.13019038E-02  0.23008565E-02 -0.10727166E-02
 -0.15086349E-02  0.42653304E-03 -0.14753770E-02
  0.13315502E-02  0.30690204E-02  0.11719135E-02
  0.28945567E-02 -0.23257868E-02 -0.38597355E-02
  0.30703635E-03 -0.26006959E-03 -0.19276995E-02
  0.40117725E-03 -0.14594672E-02  0.13648507E-02
 -0.91425789E-03  0.13999718E-02  0.88706609E-03
 -0.25409004E-02 -0.32932445E-03 -0.14358505E-02
 -0.22441852E-02  0.10947325E-02 -0.13700913E-02
 -0.40692476E-03 -0.19673837E-02  0.85509013E-03
  0.16802746E-03 -0.18190271E-02  0.77348084E-03
 -0.10180726E-02 -0.12760259E-02  0.15948723E-02
  0.62869249E-03  0.53583282E-04 -0.86436494E-03
  0.52851190E-03  0.23868789E-02  0.22420273E-02
  0.66136692E-03 -0.14051224E-02 -0.35950480E-02
 -0.16318257E-02  0.32992667E-02 -0.10884828E-02
 -0.75248100E-03  0.19443241E-02 -0.93263340E-03
  0.00000000E+00  0.00000000E+00  0.00000000E+00
  0.00000000E+00  0.00000000E+00  0.00000000E+00
  0.00000000E+00  0.00000000E+00  0.00000000E+00
  0.00000000E+00  0.00000000E+00  0.00000000E+00
  0.00000000E+00  0.00000000E+00  0.00000000E+00
  0.00000000E+00  0.00000000E+00  0.00000000E+00
  0.00000000E+00  0.00000000E+00  0.00000000E+00
  0.00000000E+00  0.00000000E+00  0.00000000E+00
  0.00000000E+00  0.00000000E+00  0.00000000E+00
  0.00000000E+00  0.00000000E+00  0.00000000E+00
  0.00000000E+00  0.00000000E+00  0.00000000E+00
  0.00000000E+00  0.00000000E+00  0.00000000E+00
  0.00000000E+00  0.00000000E+00  0.00000000E+00
  0.00000000E+00  0.00000000E+00  0.00000000E+00
  0.00000000E+00  0.00000000E+00  0.00000000E+00
  0.00000000E+00  0.00000000E+00  0.00000000E+00
  0.00000000E+00  0.00000000E+00  0.00000000E+00
  0.00000000E+00  0.00000000E+00  0.00000000E+00
  0.00000000E+00  0.00000000E+00  0.00000000E+00
  0.00000000E+00  0.00000000E+00  0.00000000E+00
  0.00000000E+00  0.00000000E+00  0.00000000E+00
  0.00000000E+00  0.00000000E+00  0.00000000E+00
  0.00000000E+00  0.00000000E+00  0.00000000E+00
  0.00000000E+00  0.00000000E+00  0.00000000E+00
  0.00000000E+00  0.00000000E+00  0.00000000E+00
  0.00000000E+00  0.00000000E+00  0.00000000E+00
  0.00000000E+00  0.00000000E+00  0.00000000E+00
  0.00000000E+00  0.00000000E+00  0.00000000E+00
  0.00000000E+00  0.00000000E+00  0.00000000E+00
  0.00000000E+00  0.00000000E+00  0.00000000E+00
  0.00000000E+00  0.00000000E+00  0.00000000E+00
  0.00000000E+00  0.00000000E+00  0.00000000E+00
  0.00000000E+00  0.00000000E+00  0.00000000E+00
  0.00000000E+00  0.00000000E+00  0.00000000E+00
  0.00000000E+00  0.00000000E+00  0.00000000E+00
  0.00000000E+00  0.00000000E+00  0.00000000E+00
  0.00000000E+00  0.00000000E+00  0.00000000E+00
  0.00000000E+00  0.00000000E+00  0.00000000E+00
  0.00000000E+00  0.00000000E+00  0.00000000E+00
  0.00000000E+00  0.00000000E+00  0.00000000E+00
  0.00000000E+00  0.00000000E+00  0.00000000E+00
  0.00000000E+00  0.00000000E+00  0.00000000E+00
  0.00000000E+00  0.00000000E+00  0.00000000E+00
  0.00000000E+00  0.00000000E+00  0.00000000E+00
  0.00000000E+00  0.00000000E+00  0.00000000E+00
  0.00000000E+00  0.00000000E+00  0.00000000E+00
  0.00000000E+00  0.00000000E+00  0.00000000E+00
  0.00000000E+00  0.00000000E+00  0.00000000E+00
