Global Parameters
ISTART = 1
ISPIN = 1
LREAL = .FALSE.
LWAVE = .TRUE.
LCHARG = .TRUE.
ADDGRID= .TRUE.
LASPH = .TRUE.
PREC = Accurate
ENCUT = 400
NPAR = 4
 
Electronic Relaxation
ISMEAR = 0
SIGMA = 0.05
NELM = 90
NELMIN = 6
EDIFF = 1E-08
 
Ionic Relaxation
NSW = 100
IBRION = 2
ISIF = 3
EDIFFG = -1E-03
 
