Cs1 Pb1 I3                              
   1.00000000000000     
     6.3965781449068482   -0.0000000000000000    0.0000000000000000
    -0.0000000000000000    6.3965781449068482   -0.0000000000000000
    -0.0000000000000000   -0.0000000000000000    6.3965781449068482
   Cs   Pb   I 
     1     1     3
Direct
  0.5000000000000000  0.5000000000000000  0.5000000000000000
 -0.0000000000000000  0.0000000000000000 -0.0000000000000000
  0.0000000000000000 -0.0000000000000000  0.5000000000000000
  0.0000000000000000  0.5000000000000000  0.0000000000000000
  0.5000000000000000  0.0000000000000000  0.0000000000000000
 
  0.00000000E+00  0.00000000E+00  0.00000000E+00
  0.00000000E+00  0.00000000E+00  0.00000000E+00
  0.00000000E+00  0.00000000E+00  0.00000000E+00
  0.00000000E+00  0.00000000E+00  0.00000000E+00
  0.00000000E+00  0.00000000E+00  0.00000000E+00
