O2                                      
   1.00000000000000     
    10.0000000000000000    0.0000000000000000    0.0000000000000000
     0.0000000000000000   10.0000000000000000    0.0000000000000000
     0.0000000000000000    0.0000000000000000   10.0000000000000000
   H 
     2
Direct
  0.4999999999929129  0.4999999999927647  0.527908560327239
  0.5000000000070870  0.5000000000072353  0.6232091439672737
 
