VOLUME scale factor: 0.9916             
  0.997181846531794     
     3.9573205426045597   -0.0000000000000000   -0.0000000000000000
    -0.0000000000000000    3.9573205426045597   -0.0000000000000000
     0.0000000000000000   -0.0000000000000000    3.9573205426045597
   Pt
     4
Direct
  0.0000000000000000  0.0000000000000000  0.0000000000000000
  0.0000000000000000  0.5000000000000000  0.5000000000000000
  0.5000000000000000  0.0000000000000000  0.5000000000000000
  0.5000000000000000  0.5000000000000000  0.0000000000000000
 
  0.00000000E+00  0.00000000E+00  0.00000000E+00
  0.00000000E+00  0.00000000E+00  0.00000000E+00
  0.00000000E+00  0.00000000E+00  0.00000000E+00
  0.00000000E+00  0.00000000E+00  0.00000000E+00
