 POSCAR\(1\1\1)                         
   1.00000000000000     
     5.6283001900000000    0.0000000000000000    0.0000000000000000
    -2.8141500950000000    4.8742509446000000    0.0000000000000000
     0.0000000000000000    0.0000000000000000   21.1909008026000016
   Pt   H 
    20     1
Selective dynamics
Direct
  0.3333300099999974  0.6666700179999978  0.0471899980000003   F   F   F
  0.0000000000000000  0.0000000000000000  0.1556199919999983   F   F   F
  0.6661441596040184  0.3328053812946755  0.2631137660434533   F   F   F
  0.3337853741601492  0.6666434998336684  0.3709217702606288   F   F   F
  0.0062882472579806  0.0031959039716341  0.4823782333670681   F   F   F
  0.3333300099999974  0.1666699749999978  0.0471899980000003   F   F   F
  0.9999999970000033  0.4999999939999995  0.1556199919999983   F   F   F
  0.6664980253145455  0.8329939288819289  0.2635967722791271   F   F   F
  0.3331570518382287  0.1663126627488051  0.3719308277515244   F   F   F
  0.0000564096471489  0.5001131672521260  0.4792385943311420   F   F   F
  0.8333300950000009  0.1666699749999978  0.0471899980000003   F   F   F
  0.4999999970000033  0.4999999939999995  0.1556199919999983   F   F   F
  0.1666634382154687  0.8333247100460252  0.2630946019104937   F   F   F
  0.8328949827249245  0.1657885250132690  0.3709716137051243   F   F   F
  0.4968465679473234  0.4936933766394085  0.4823503630176766   F   F   F
  0.8333299680000010  0.6666700179999978  0.0471899980000003   F   F   F
  0.5000000000000000  0.0000000000000000  0.1556199919999983   F   F   F
  0.1666634493353056  0.3328053601986148  0.2631137552554643   F   F   F
  0.8328595887390071  0.6666435440695111  0.3709217639808083   F   F   F
  0.4969072109643600  0.0031959657275260  0.4823782691871003   F   F   F
  0.6666740582558470  0.8333492832259802  0.5235599506352453   T   T   T
 

