Global Parameters
ISTART =  0            (Read existing wavefunction; if there)
ISPIN  =  1
# ICHARG =  11         (Non-self-consistent: GGA/LDA band structures)
ENCUT  =  450        (Cut-off energy for plane wave basis set, in eV)
PREC   =  Normal       (Precision level)
LWAVE  = .FALSE.        (Write WAVECAR or not)
LCHARG = .FALSE.        (Write CHGCAR or not)
 
Electronic Relaxation
ISMEAR =  0            (Gaussian smearing; metals:1)
SIGMA  =  0.05         (Smearing value in eV; metals:0.2)
NELM   =  90           (Max electronic SCF steps)
NELMIN =  6            (Min electronic SCF steps)
EDIFF  =  1E-08        (SCF energy convergence; in eV)
# GGA  =  PS           (PBEsol exchange-correlation)
 
Ionic Relaxation
NSW    =  1            (Max ionic steps)
IBRION =  5            (Algorithm: 0-MD; 1-Quasi-New; 2-CG)
ISIF   =  2            (Stress/relaxation: 2-Ions, 3-Shape/Ions/V, 4-Shape/Ions)
#EDIFFG = -1E-02        (Ionic convergence; eV/AA)
ISYM   =  0            (Symmetry: 0=none; 2=GGA; 3=hybrids)
POTIM  =  0.015
NFREE  =  2
