O2                                      
   1.00000000000000     
    10.0000000000000000    0.0000000000000000    0.0000000000000000
     0.0000000000000000   10.0000000000000000    0.0000000000000000
     0.0000000000000000    0.0000000000000000   10.0000000000000000
   H 
     2
Direct
  0.4999999999944271  0.4999999999943165  0.5380279908526848
  0.5000000000055729  0.5000000000056837  0.6130897134418287
 
  0.00000000E+00  0.00000000E+00  0.00000000E+00
  0.00000000E+00  0.00000000E+00  0.00000000E+00
