G   87   87   87    0.005     # Parameters to Generate KPOINTS (Don't Edit This Line)
   15180
Reciprocal lattice
    0.000000000000    0.000000000000    0.000000000000       1
    0.011494252874    0.000000000000    0.000000000000       8
    0.022988505747    0.000000000000    0.000000000000       8
    0.034482758621    0.000000000000    0.000000000000       8
    0.045977011494    0.000000000000    0.000000000000       8
    0.057471264368    0.000000000000    0.000000000000       8
    0.068965517241    0.000000000000    0.000000000000       8
    0.080459770115    0.000000000000    0.000000000000       8
    0.091954022989    0.000000000000    0.000000000000       8
    0.103448275862    0.000000000000    0.000000000000       8
    0.114942528736    0.000000000000    0.000000000000       8
    0.126436781609    0.000000000000    0.000000000000       8
    0.137931034483    0.000000000000    0.000000000000       8
    0.149425287356    0.000000000000    0.000000000000       8
    0.160919540230    0.000000000000    0.000000000000       8
    0.172413793103    0.000000000000    0.000000000000       8
    0.183908045977    0.000000000000    0.000000000000       8
    0.195402298851    0.000000000000    0.000000000000       8
    0.206896551724    0.000000000000    0.000000000000       8
    0.218390804598    0.000000000000    0.000000000000       8
    0.229885057471    0.000000000000    0.000000000000       8
    0.241379310345    0.000000000000    0.000000000000       8
    0.252873563218    0.000000000000    0.000000000000       8
    0.264367816092    0.000000000000    0.000000000000       8
    0.275862068966    0.000000000000    0.000000000000       8
    0.287356321839    0.000000000000    0.000000000000       8
    0.298850574713    0.000000000000    0.000000000000       8
    0.310344827586    0.000000000000    0.000000000000       8
    0.321839080460    0.000000000000    0.000000000000       8
    0.333333333333    0.000000000000    0.000000000000       8
    0.344827586207    0.000000000000    0.000000000000       8
    0.356321839080    0.000000000000    0.000000000000       8
    0.367816091954    0.000000000000    0.000000000000       8
    0.379310344828    0.000000000000    0.000000000000       8
    0.390804597701    0.000000000000    0.000000000000       8
    0.402298850575    0.000000000000    0.000000000000       8
    0.413793103448    0.000000000000    0.000000000000       8
    0.425287356322    0.000000000000    0.000000000000       8
    0.436781609195    0.000000000000    0.000000000000       8
    0.448275862069    0.000000000000    0.000000000000       8
    0.459770114943    0.000000000000    0.000000000000       8
    0.471264367816    0.000000000000    0.000000000000       8
    0.482758620690    0.000000000000    0.000000000000       8
    0.494252873563    0.000000000000    0.000000000000       8
    0.011494252874    0.011494252874    0.000000000000       6
    0.022988505747    0.011494252874    0.000000000000      24
    0.034482758621    0.011494252874    0.000000000000      24
    0.045977011494    0.011494252874    0.000000000000      24
    0.057471264368    0.011494252874    0.000000000000      24
    0.068965517241    0.011494252874    0.000000000000      24
    0.080459770115    0.011494252874    0.000000000000      24
    0.091954022989    0.011494252874    0.000000000000      24
    0.103448275862    0.011494252874    0.000000000000      24
    0.114942528736    0.011494252874    0.000000000000      24
    0.126436781609    0.011494252874    0.000000000000      24
    0.137931034483    0.011494252874    0.000000000000      24
    0.149425287356    0.011494252874    0.000000000000      24
    0.160919540230    0.011494252874    0.000000000000      24
    0.172413793103    0.011494252874    0.000000000000      24
    0.183908045977    0.011494252874    0.000000000000      24
    0.195402298851    0.011494252874    0.000000000000      24
    0.206896551724    0.011494252874    0.000000000000      24
    0.218390804598    0.011494252874    0.000000000000      24
    0.229885057471    0.011494252874    0.000000000000      24
    0.241379310345    0.011494252874    0.000000000000      24
    0.252873563218    0.011494252874    0.000000000000      24
    0.264367816092    0.011494252874    0.000000000000      24
    0.275862068966    0.011494252874    0.000000000000      24
    0.287356321839    0.011494252874    0.000000000000      24
    0.298850574713    0.011494252874    0.000000000000      24
    0.310344827586    0.011494252874    0.000000000000      24
    0.321839080460    0.011494252874    0.000000000000      24
    0.333333333333    0.011494252874    0.000000000000      24
    0.344827586207    0.011494252874    0.000000000000      24
    0.356321839080    0.011494252874    0.000000000000      24
    0.367816091954    0.011494252874    0.000000000000      24
    0.379310344828    0.011494252874    0.000000000000      24
    0.390804597701    0.011494252874    0.000000000000      24
    0.402298850575    0.011494252874    0.000000000000      24
    0.413793103448    0.011494252874    0.000000000000      24
    0.425287356322    0.011494252874    0.000000000000      24
    0.436781609195    0.011494252874    0.000000000000      24
    0.448275862069    0.011494252874    0.000000000000      24
    0.459770114943    0.011494252874    0.000000000000      24
    0.471264367816    0.011494252874    0.000000000000      24
    0.482758620690    0.011494252874    0.000000000000      24
    0.494252873563    0.011494252874    0.000000000000      24
   -0.494252873563    0.011494252874    0.000000000000      24
   -0.482758620690    0.011494252874    0.000000000000      24
   -0.471264367816    0.011494252874    0.000000000000      24
   -0.459770114943    0.011494252874    0.000000000000      24
   -0.448275862069    0.011494252874    0.000000000000      24
   -0.436781609195    0.011494252874    0.000000000000      24
   -0.425287356322    0.011494252874    0.000000000000      24
   -0.413793103448    0.011494252874    0.000000000000      24
   -0.402298850575    0.011494252874    0.000000000000      24
   -0.390804597701    0.011494252874    0.000000000000      24
   -0.379310344828    0.011494252874    0.000000000000      24
   -0.367816091954    0.011494252874    0.000000000000      24
   -0.356321839080    0.011494252874    0.000000000000      24
   -0.344827586207    0.011494252874    0.000000000000      24
   -0.333333333333    0.011494252874    0.000000000000      24
   -0.321839080460    0.011494252874    0.000000000000      24
   -0.310344827586    0.011494252874    0.000000000000      24
   -0.298850574713    0.011494252874    0.000000000000      24
   -0.287356321839    0.011494252874    0.000000000000      24
   -0.275862068966    0.011494252874    0.000000000000      24
   -0.264367816092    0.011494252874    0.000000000000      24
   -0.252873563218    0.011494252874    0.000000000000      24
   -0.241379310345    0.011494252874    0.000000000000      24
   -0.229885057471    0.011494252874    0.000000000000      24
   -0.218390804598    0.011494252874    0.000000000000      24
   -0.206896551724    0.011494252874    0.000000000000      24
   -0.195402298851    0.011494252874    0.000000000000      24
   -0.183908045977    0.011494252874    0.000000000000      24
   -0.172413793103    0.011494252874    0.000000000000      24
   -0.160919540230    0.011494252874    0.000000000000      24
   -0.149425287356    0.011494252874    0.000000000000      24
   -0.137931034483    0.011494252874    0.000000000000      24
   -0.126436781609    0.011494252874    0.000000000000      24
   -0.114942528736    0.011494252874    0.000000000000      24
   -0.103448275862    0.011494252874    0.000000000000      24
   -0.091954022989    0.011494252874    0.000000000000      24
   -0.080459770115    0.011494252874    0.000000000000      24
   -0.068965517241    0.011494252874    0.000000000000      24
   -0.057471264368    0.011494252874    0.000000000000      24
   -0.045977011494    0.011494252874    0.000000000000      24
   -0.034482758621    0.011494252874    0.000000000000      24
   -0.022988505747    0.011494252874    0.000000000000      24
   -0.011494252874    0.011494252874    0.000000000000      12
    0.022988505747    0.022988505747    0.000000000000       6
    0.034482758621    0.022988505747    0.000000000000      24
    0.045977011494    0.022988505747    0.000000000000      24
    0.057471264368    0.022988505747    0.000000000000      24
    0.068965517241    0.022988505747    0.000000000000      24
    0.080459770115    0.022988505747    0.000000000000      24
    0.091954022989    0.022988505747    0.000000000000      24
    0.103448275862    0.022988505747    0.000000000000      24
    0.114942528736    0.022988505747    0.000000000000      24
    0.126436781609    0.022988505747    0.000000000000      24
    0.137931034483    0.022988505747    0.000000000000      24
    0.149425287356    0.022988505747    0.000000000000      24
    0.160919540230    0.022988505747    0.000000000000      24
    0.172413793103    0.022988505747    0.000000000000      24
    0.183908045977    0.022988505747    0.000000000000      24
    0.195402298851    0.022988505747    0.000000000000      24
    0.206896551724    0.022988505747    0.000000000000      24
    0.218390804598    0.022988505747    0.000000000000      24
    0.229885057471    0.022988505747    0.000000000000      24
    0.241379310345    0.022988505747    0.000000000000      24
    0.252873563218    0.022988505747    0.000000000000      24
    0.264367816092    0.022988505747    0.000000000000      24
    0.275862068966    0.022988505747    0.000000000000      24
    0.287356321839    0.022988505747    0.000000000000      24
    0.298850574713    0.022988505747    0.000000000000      24
    0.310344827586    0.022988505747    0.000000000000      24
    0.321839080460    0.022988505747    0.000000000000      24
    0.333333333333    0.022988505747    0.000000000000      24
    0.344827586207    0.022988505747    0.000000000000      24
    0.356321839080    0.022988505747    0.000000000000      24
    0.367816091954    0.022988505747    0.000000000000      24
    0.379310344828    0.022988505747    0.000000000000      24
    0.390804597701    0.022988505747    0.000000000000      24
    0.402298850575    0.022988505747    0.000000000000      24
    0.413793103448    0.022988505747    0.000000000000      24
    0.425287356322    0.022988505747    0.000000000000      24
    0.436781609195    0.022988505747    0.000000000000      24
    0.448275862069    0.022988505747    0.000000000000      24
    0.459770114943    0.022988505747    0.000000000000      24
    0.471264367816    0.022988505747    0.000000000000      24
    0.482758620690    0.022988505747    0.000000000000      24
    0.494252873563    0.022988505747    0.000000000000      24
   -0.494252873563    0.022988505747    0.000000000000      24
   -0.482758620690    0.022988505747    0.000000000000      24
   -0.471264367816    0.022988505747    0.000000000000      24
   -0.459770114943    0.022988505747    0.000000000000      24
   -0.448275862069    0.022988505747    0.000000000000      24
   -0.436781609195    0.022988505747    0.000000000000      24
   -0.425287356322    0.022988505747    0.000000000000      24
   -0.413793103448    0.022988505747    0.000000000000      24
   -0.402298850575    0.022988505747    0.000000000000      24
   -0.390804597701    0.022988505747    0.000000000000      24
   -0.379310344828    0.022988505747    0.000000000000      24
   -0.367816091954    0.022988505747    0.000000000000      24
   -0.356321839080    0.022988505747    0.000000000000      24
   -0.344827586207    0.022988505747    0.000000000000      24
   -0.333333333333    0.022988505747    0.000000000000      24
   -0.321839080460    0.022988505747    0.000000000000      24
   -0.310344827586    0.022988505747    0.000000000000      24
   -0.298850574713    0.022988505747    0.000000000000      24
   -0.287356321839    0.022988505747    0.000000000000      24
   -0.275862068966    0.022988505747    0.000000000000      24
   -0.264367816092    0.022988505747    0.000000000000      24
   -0.252873563218    0.022988505747    0.000000000000      24
   -0.241379310345    0.022988505747    0.000000000000      24
   -0.229885057471    0.022988505747    0.000000000000      24
   -0.218390804598    0.022988505747    0.000000000000      24
   -0.206896551724    0.022988505747    0.000000000000      24
   -0.195402298851    0.022988505747    0.000000000000      24
   -0.183908045977    0.022988505747    0.000000000000      24
   -0.172413793103    0.022988505747    0.000000000000      24
   -0.160919540230    0.022988505747    0.000000000000      24
   -0.149425287356    0.022988505747    0.000000000000      24
   -0.137931034483    0.022988505747    0.000000000000      24
   -0.126436781609    0.022988505747    0.000000000000      24
   -0.114942528736    0.022988505747    0.000000000000      24
   -0.103448275862    0.022988505747    0.000000000000      24
   -0.091954022989    0.022988505747    0.000000000000      24
   -0.080459770115    0.022988505747    0.000000000000      24
   -0.068965517241    0.022988505747    0.000000000000      24
   -0.057471264368    0.022988505747    0.000000000000      24
   -0.045977011494    0.022988505747    0.000000000000      24
   -0.034482758621    0.022988505747    0.000000000000      24
   -0.022988505747    0.022988505747    0.000000000000      12
    0.034482758621    0.034482758621    0.000000000000       6
    0.045977011494    0.034482758621    0.000000000000      24
    0.057471264368    0.034482758621    0.000000000000      24
    0.068965517241    0.034482758621    0.000000000000      24
    0.080459770115    0.034482758621    0.000000000000      24
    0.091954022989    0.034482758621    0.000000000000      24
    0.103448275862    0.034482758621    0.000000000000      24
    0.114942528736    0.034482758621    0.000000000000      24
    0.126436781609    0.034482758621    0.000000000000      24
    0.137931034483    0.034482758621    0.000000000000      24
    0.149425287356    0.034482758621    0.000000000000      24
    0.160919540230    0.034482758621    0.000000000000      24
    0.172413793103    0.034482758621    0.000000000000      24
    0.183908045977    0.034482758621    0.000000000000      24
    0.195402298851    0.034482758621    0.000000000000      24
    0.206896551724    0.034482758621    0.000000000000      24
    0.218390804598    0.034482758621    0.000000000000      24
    0.229885057471    0.034482758621    0.000000000000      24
    0.241379310345    0.034482758621    0.000000000000      24
    0.252873563218    0.034482758621    0.000000000000      24
    0.264367816092    0.034482758621    0.000000000000      24
    0.275862068966    0.034482758621    0.000000000000      24
    0.287356321839    0.034482758621    0.000000000000      24
    0.298850574713    0.034482758621    0.000000000000      24
    0.310344827586    0.034482758621    0.000000000000      24
    0.321839080460    0.034482758621    0.000000000000      24
    0.333333333333    0.034482758621    0.000000000000      24
    0.344827586207    0.034482758621    0.000000000000      24
    0.356321839080    0.034482758621    0.000000000000      24
    0.367816091954    0.034482758621    0.000000000000      24
    0.379310344828    0.034482758621    0.000000000000      24
    0.390804597701    0.034482758621    0.000000000000      24
    0.402298850575    0.034482758621    0.000000000000      24
    0.413793103448    0.034482758621    0.000000000000      24
    0.425287356322    0.034482758621    0.000000000000      24
    0.436781609195    0.034482758621    0.000000000000      24
    0.448275862069    0.034482758621    0.000000000000      24
    0.459770114943    0.034482758621    0.000000000000      24
    0.471264367816    0.034482758621    0.000000000000      24
    0.482758620690    0.034482758621    0.000000000000      24
    0.494252873563    0.034482758621    0.000000000000      24
   -0.494252873563    0.034482758621    0.000000000000      24
   -0.482758620690    0.034482758621    0.000000000000      24
   -0.471264367816    0.034482758621    0.000000000000      24
   -0.459770114943    0.034482758621    0.000000000000      24
   -0.448275862069    0.034482758621    0.000000000000      24
   -0.436781609195    0.034482758621    0.000000000000      24
   -0.425287356322    0.034482758621    0.000000000000      24
   -0.413793103448    0.034482758621    0.000000000000      24
   -0.402298850575    0.034482758621    0.000000000000      24
   -0.390804597701    0.034482758621    0.000000000000      24
   -0.379310344828    0.034482758621    0.000000000000      24
   -0.367816091954    0.034482758621    0.000000000000      24
   -0.356321839080    0.034482758621    0.000000000000      24
   -0.344827586207    0.034482758621    0.000000000000      24
   -0.333333333333    0.034482758621    0.000000000000      24
   -0.321839080460    0.034482758621    0.000000000000      24
   -0.310344827586    0.034482758621    0.000000000000      24
   -0.298850574713    0.034482758621    0.000000000000      24
   -0.287356321839    0.034482758621    0.000000000000      24
   -0.275862068966    0.034482758621    0.000000000000      24
   -0.264367816092    0.034482758621    0.000000000000      24
   -0.252873563218    0.034482758621    0.000000000000      24
   -0.241379310345    0.034482758621    0.000000000000      24
   -0.229885057471    0.034482758621    0.000000000000      24
   -0.218390804598    0.034482758621    0.000000000000      24
   -0.206896551724    0.034482758621    0.000000000000      24
   -0.195402298851    0.034482758621    0.000000000000      24
   -0.183908045977    0.034482758621    0.000000000000      24
   -0.172413793103    0.034482758621    0.000000000000      24
   -0.160919540230    0.034482758621    0.000000000000      24
   -0.149425287356    0.034482758621    0.000000000000      24
   -0.137931034483    0.034482758621    0.000000000000      24
   -0.126436781609    0.034482758621    0.000000000000      24
   -0.114942528736    0.034482758621    0.000000000000      24
   -0.103448275862    0.034482758621    0.000000000000      24
   -0.091954022989    0.034482758621    0.000000000000      24
   -0.080459770115    0.034482758621    0.000000000000      24
   -0.068965517241    0.034482758621    0.000000000000      24
   -0.057471264368    0.034482758621    0.000000000000      24
   -0.045977011494    0.034482758621    0.000000000000      24
   -0.034482758621    0.034482758621    0.000000000000      12
    0.045977011494    0.045977011494    0.000000000000       6
    0.057471264368    0.045977011494    0.000000000000      24
    0.068965517241    0.045977011494    0.000000000000      24
    0.080459770115    0.045977011494    0.000000000000      24
    0.091954022989    0.045977011494    0.000000000000      24
    0.103448275862    0.045977011494    0.000000000000      24
    0.114942528736    0.045977011494    0.000000000000      24
    0.126436781609    0.045977011494    0.000000000000      24
    0.137931034483    0.045977011494    0.000000000000      24
    0.149425287356    0.045977011494    0.000000000000      24
    0.160919540230    0.045977011494    0.000000000000      24
    0.172413793103    0.045977011494    0.000000000000      24
    0.183908045977    0.045977011494    0.000000000000      24
    0.195402298851    0.045977011494    0.000000000000      24
    0.206896551724    0.045977011494    0.000000000000      24
    0.218390804598    0.045977011494    0.000000000000      24
    0.229885057471    0.045977011494    0.000000000000      24
    0.241379310345    0.045977011494    0.000000000000      24
    0.252873563218    0.045977011494    0.000000000000      24
    0.264367816092    0.045977011494    0.000000000000      24
    0.275862068966    0.045977011494    0.000000000000      24
    0.287356321839    0.045977011494    0.000000000000      24
    0.298850574713    0.045977011494    0.000000000000      24
    0.310344827586    0.045977011494    0.000000000000      24
    0.321839080460    0.045977011494    0.000000000000      24
    0.333333333333    0.045977011494    0.000000000000      24
    0.344827586207    0.045977011494    0.000000000000      24
    0.356321839080    0.045977011494    0.000000000000      24
    0.367816091954    0.045977011494    0.000000000000      24
    0.379310344828    0.045977011494    0.000000000000      24
    0.390804597701    0.045977011494    0.000000000000      24
    0.402298850575    0.045977011494    0.000000000000      24
    0.413793103448    0.045977011494    0.000000000000      24
    0.425287356322    0.045977011494    0.000000000000      24
    0.436781609195    0.045977011494    0.000000000000      24
    0.448275862069    0.045977011494    0.000000000000      24
    0.459770114943    0.045977011494    0.000000000000      24
    0.471264367816    0.045977011494    0.000000000000      24
    0.482758620690    0.045977011494    0.000000000000      24
    0.494252873563    0.045977011494    0.000000000000      24
   -0.494252873563    0.045977011494    0.000000000000      24
   -0.482758620690    0.045977011494    0.000000000000      24
   -0.471264367816    0.045977011494    0.000000000000      24
   -0.459770114943    0.045977011494    0.000000000000      24
   -0.448275862069    0.045977011494    0.000000000000      24
   -0.436781609195    0.045977011494    0.000000000000      24
   -0.425287356322    0.045977011494    0.000000000000      24
   -0.413793103448    0.045977011494    0.000000000000      24
   -0.402298850575    0.045977011494    0.000000000000      24
   -0.390804597701    0.045977011494    0.000000000000      24
   -0.379310344828    0.045977011494    0.000000000000      24
   -0.367816091954    0.045977011494    0.000000000000      24
   -0.356321839080    0.045977011494    0.000000000000      24
   -0.344827586207    0.045977011494    0.000000000000      24
   -0.333333333333    0.045977011494    0.000000000000      24
   -0.321839080460    0.045977011494    0.000000000000      24
   -0.310344827586    0.045977011494    0.000000000000      24
   -0.298850574713    0.045977011494    0.000000000000      24
   -0.287356321839    0.045977011494    0.000000000000      24
   -0.275862068966    0.045977011494    0.000000000000      24
   -0.264367816092    0.045977011494    0.000000000000      24
   -0.252873563218    0.045977011494    0.000000000000      24
   -0.241379310345    0.045977011494    0.000000000000      24
   -0.229885057471    0.045977011494    0.000000000000      24
   -0.218390804598    0.045977011494    0.000000000000      24
   -0.206896551724    0.045977011494    0.000000000000      24
   -0.195402298851    0.045977011494    0.000000000000      24
   -0.183908045977    0.045977011494    0.000000000000      24
   -0.172413793103    0.045977011494    0.000000000000      24
   -0.160919540230    0.045977011494    0.000000000000      24
   -0.149425287356    0.045977011494    0.000000000000      24
   -0.137931034483    0.045977011494    0.000000000000      24
   -0.126436781609    0.045977011494    0.000000000000      24
   -0.114942528736    0.045977011494    0.000000000000      24
   -0.103448275862    0.045977011494    0.000000000000      24
   -0.091954022989    0.045977011494    0.000000000000      24
   -0.080459770115    0.045977011494    0.000000000000      24
   -0.068965517241    0.045977011494    0.000000000000      24
   -0.057471264368    0.045977011494    0.000000000000      24
   -0.045977011494    0.045977011494    0.000000000000      12
    0.057471264368    0.057471264368    0.000000000000       6
    0.068965517241    0.057471264368    0.000000000000      24
    0.080459770115    0.057471264368    0.000000000000      24
    0.091954022989    0.057471264368    0.000000000000      24
    0.103448275862    0.057471264368    0.000000000000      24
    0.114942528736    0.057471264368    0.000000000000      24
    0.126436781609    0.057471264368    0.000000000000      24
    0.137931034483    0.057471264368    0.000000000000      24
    0.149425287356    0.057471264368    0.000000000000      24
    0.160919540230    0.057471264368    0.000000000000      24
    0.172413793103    0.057471264368    0.000000000000      24
    0.183908045977    0.057471264368    0.000000000000      24
    0.195402298851    0.057471264368    0.000000000000      24
    0.206896551724    0.057471264368    0.000000000000      24
    0.218390804598    0.057471264368    0.000000000000      24
    0.229885057471    0.057471264368    0.000000000000      24
    0.241379310345    0.057471264368    0.000000000000      24
    0.252873563218    0.057471264368    0.000000000000      24
    0.264367816092    0.057471264368    0.000000000000      24
    0.275862068966    0.057471264368    0.000000000000      24
    0.287356321839    0.057471264368    0.000000000000      24
    0.298850574713    0.057471264368    0.000000000000      24
    0.310344827586    0.057471264368    0.000000000000      24
    0.321839080460    0.057471264368    0.000000000000      24
    0.333333333333    0.057471264368    0.000000000000      24
    0.344827586207    0.057471264368    0.000000000000      24
    0.356321839080    0.057471264368    0.000000000000      24
    0.367816091954    0.057471264368    0.000000000000      24
    0.379310344828    0.057471264368    0.000000000000      24
    0.390804597701    0.057471264368    0.000000000000      24
    0.402298850575    0.057471264368    0.000000000000      24
    0.413793103448    0.057471264368    0.000000000000      24
    0.425287356322    0.057471264368    0.000000000000      24
    0.436781609195    0.057471264368    0.000000000000      24
    0.448275862069    0.057471264368    0.000000000000      24
    0.459770114943    0.057471264368    0.000000000000      24
    0.471264367816    0.057471264368    0.000000000000      24
    0.482758620690    0.057471264368    0.000000000000      24
    0.494252873563    0.057471264368    0.000000000000      24
   -0.494252873563    0.057471264368    0.000000000000      24
   -0.482758620690    0.057471264368    0.000000000000      24
   -0.471264367816    0.057471264368    0.000000000000      24
   -0.459770114943    0.057471264368    0.000000000000      24
   -0.448275862069    0.057471264368    0.000000000000      24
   -0.436781609195    0.057471264368    0.000000000000      24
   -0.425287356322    0.057471264368    0.000000000000      24
   -0.413793103448    0.057471264368    0.000000000000      24
   -0.402298850575    0.057471264368    0.000000000000      24
   -0.390804597701    0.057471264368    0.000000000000      24
   -0.379310344828    0.057471264368    0.000000000000      24
   -0.367816091954    0.057471264368    0.000000000000      24
   -0.356321839080    0.057471264368    0.000000000000      24
   -0.344827586207    0.057471264368    0.000000000000      24
   -0.333333333333    0.057471264368    0.000000000000      24
   -0.321839080460    0.057471264368    0.000000000000      24
   -0.310344827586    0.057471264368    0.000000000000      24
   -0.298850574713    0.057471264368    0.000000000000      24
   -0.287356321839    0.057471264368    0.000000000000      24
   -0.275862068966    0.057471264368    0.000000000000      24
   -0.264367816092    0.057471264368    0.000000000000      24
   -0.252873563218    0.057471264368    0.000000000000      24
   -0.241379310345    0.057471264368    0.000000000000      24
   -0.229885057471    0.057471264368    0.000000000000      24
   -0.218390804598    0.057471264368    0.000000000000      24
   -0.206896551724    0.057471264368    0.000000000000      24
   -0.195402298851    0.057471264368    0.000000000000      24
   -0.183908045977    0.057471264368    0.000000000000      24
   -0.172413793103    0.057471264368    0.000000000000      24
   -0.160919540230    0.057471264368    0.000000000000      24
   -0.149425287356    0.057471264368    0.000000000000      24
   -0.137931034483    0.057471264368    0.000000000000      24
   -0.126436781609    0.057471264368    0.000000000000      24
   -0.114942528736    0.057471264368    0.000000000000      24
   -0.103448275862    0.057471264368    0.000000000000      24
   -0.091954022989    0.057471264368    0.000000000000      24
   -0.080459770115    0.057471264368    0.000000000000      24
   -0.068965517241    0.057471264368    0.000000000000      24
   -0.057471264368    0.057471264368    0.000000000000      12
    0.068965517241    0.068965517241    0.000000000000       6
    0.080459770115    0.068965517241    0.000000000000      24
    0.091954022989    0.068965517241    0.000000000000      24
    0.103448275862    0.068965517241    0.000000000000      24
    0.114942528736    0.068965517241    0.000000000000      24
    0.126436781609    0.068965517241    0.000000000000      24
    0.137931034483    0.068965517241    0.000000000000      24
    0.149425287356    0.068965517241    0.000000000000      24
    0.160919540230    0.068965517241    0.000000000000      24
    0.172413793103    0.068965517241    0.000000000000      24
    0.183908045977    0.068965517241    0.000000000000      24
    0.195402298851    0.068965517241    0.000000000000      24
    0.206896551724    0.068965517241    0.000000000000      24
    0.218390804598    0.068965517241    0.000000000000      24
    0.229885057471    0.068965517241    0.000000000000      24
    0.241379310345    0.068965517241    0.000000000000      24
    0.252873563218    0.068965517241    0.000000000000      24
    0.264367816092    0.068965517241    0.000000000000      24
    0.275862068966    0.068965517241    0.000000000000      24
    0.287356321839    0.068965517241    0.000000000000      24