Generated by VASPKIT code
 1.000000
    0.0000000000000000    1.9898961864660070    1.9898961864660070
    1.9898961864660070    0.0000000000000000    1.9898961864660070
    1.9898961864660070    1.9898961864660070    0.0000000000000000
      Pt
       1
Direct
    0.0000000000000000    0.0000000000000000    0.0000000000000000    Pt0001
