VOLUME scale factor:  1.093
    1.0300
    3.9797923729320139    0.0000000000000000    0.0000000000000000
    0.0000000000000000    3.9797923729320139    0.0000000000000000
    0.0000000000000000    0.0000000000000000    3.9797923729320139
   Pt
    4
DIRECT
    0.0000000000000000    0.0000000000000000    0.0000000000000000    Pt1
    0.0000000000000000    0.5000000000000000    0.5000000000000000    Pt2
    0.5000000000000000    0.0000000000000000    0.5000000000000000    Pt3
    0.5000000000000000    0.5000000000000000    0.0000000000000000    Pt4
