 POSCAR\(1\1\1)                         
   1.00000000000000     
     5.6283001900000000    0.0000000000000000    0.0000000000000000
    -2.8141500950000000    4.8742509446000000    0.0000000000000000
     0.0000000000000000    0.0000000000000000   21.1909008026000016
   Pt
    20
Selective dynamics
Direct
  0.3333300099999974  0.6666700179999978  0.0471899980000003   F   F   F
  0.0000000000000000  0.0000000000000000  0.1556199919999983   F   F   F
  0.6666643116561735  0.3333356793438293  0.2630947101529424   T   T   T
  0.3333361618599118  0.6666638661400835  0.3706481982784849   T   T   T
 -0.0000016704059857  0.0000016704059857  0.4803054315318542   T   T   T
  0.3333300159999979  0.1666699869999988  0.0471899980000003   F   F   F
  0.9999999970000033  0.4999999939999995  0.1556199919999983   F   F   F
  0.6666643426561725  0.8333356983438274  0.2630947101529424   T   T   T
  0.3333361678599123  0.1666638351400845  0.3706481982784849   T   T   T
  0.9999983265940177  0.5000016644059851  0.4803054315318542   T   T   T
  0.8333300159999979  0.1666699869999988  0.0471899980000003   F   F   F
  0.4999999970000033  0.4999999939999995  0.1556199919999983   F   F   F
  0.1666643216561672  0.8333356983438274  0.2630947101529424   T   T   T
  0.8333361678599122  0.1666638351400845  0.3706481982784849   T   T   T
  0.4999983265940177  0.5000016644059851  0.4803054315318542   T   T   T
  0.8333299680000010  0.6666700179999978  0.0471899980000003   F   F   F
  0.5000000000000000  0.0000000000000000  0.1556199919999983   F   F   F
  0.1666643016561727  0.3333356793438293  0.2630947101529424   T   T   T
  0.8333361198599153  0.6666638661400835  0.3706481982784849   T   T   T
  0.4999983295940144  0.0000016704059857  0.4803054315318542   T   T   T
 
  0.00000000E+00  0.00000000E+00  0.00000000E+00
  0.00000000E+00  0.00000000E+00  0.00000000E+00
  0.00000000E+00  0.00000000E+00  0.00000000E+00
  0.00000000E+00  0.00000000E+00  0.00000000E+00
  0.00000000E+00  0.00000000E+00  0.00000000E+00
  0.00000000E+00  0.00000000E+00  0.00000000E+00
  0.00000000E+00  0.00000000E+00  0.00000000E+00
  0.00000000E+00  0.00000000E+00  0.00000000E+00
  0.00000000E+00  0.00000000E+00  0.00000000E+00
  0.00000000E+00  0.00000000E+00  0.00000000E+00
  0.00000000E+00  0.00000000E+00  0.00000000E+00
  0.00000000E+00  0.00000000E+00  0.00000000E+00
  0.00000000E+00  0.00000000E+00  0.00000000E+00
  0.00000000E+00  0.00000000E+00  0.00000000E+00
  0.00000000E+00  0.00000000E+00  0.00000000E+00
  0.00000000E+00  0.00000000E+00  0.00000000E+00
  0.00000000E+00  0.00000000E+00  0.00000000E+00
  0.00000000E+00  0.00000000E+00  0.00000000E+00
  0.00000000E+00  0.00000000E+00  0.00000000E+00
  0.00000000E+00  0.00000000E+00  0.00000000E+00
