ISMEAR = 0
SIGMA = 0.01
EDIFF = 1E-08
PREC = Accurate
ENCUT = 400
IALGO = 38
LREAL = .FALSE.
LWAVE = .FALSE.
LCHARG = .FALSE.
ADDGRID= .TRUE.
IBRION = 6
LPHON_DISPERSION = T
PHON_NWRITE = -3
