Generated by VASPKIT code
 1.000000
   12.7771818309155041    0.0000000000000000    0.0000000000000000
    0.0000000000000008   12.7771818309155041    0.0000000000000000
    0.0000000000000008    0.0000000000000008   12.7771818309155041
      Cs      Pb      I 
       8       8      24
Direct
    0.2500000000000000    0.2500000000000000    0.2500000000000000    Cs0001
    0.2500000000000000    0.2500000000000000    0.7500000000000000    Cs0002
    0.2500000000000000    0.7500000000000000    0.2500000000000000    Cs0003
    0.2500000000000000    0.7500000000000000    0.7500000000000000    Cs0004
    0.7500000000000000    0.2500000000000000    0.2500000000000000    Cs0005
    0.7500000000000000    0.2500000000000000    0.7500000000000000    Cs0006
    0.7500000000000000    0.7500000000000000    0.2500000000000000    Cs0007
    0.7500000000000000    0.7500000000000000    0.7500000000000000    Cs0008
    0.0000000000000000    0.0000000000000000    0.0000000000000000    Pb0001
    0.0000000000000000    0.0000000000000000    0.5000000000000000    Pb0002
    0.0000000000000000    0.5000000000000000    0.0000000000000000    Pb0003
    0.0000000000000000    0.5000000000000000    0.5000000000000000    Pb0004
    0.5000000000000000    0.0000000000000000    0.0000000000000000    Pb0005
    0.5000000000000000    0.0000000000000000    0.5000000000000000    Pb0006
    0.5000000000000000    0.5000000000000000    0.0000000000000000    Pb0007
    0.5000000000000000    0.5000000000000000    0.5000000000000000    Pb0008
    0.0000000000000000    0.0000000000000000    0.2500000000000000     I0001
    0.0000000000000000    0.0000000000000000    0.7500000000000000     I0002
    0.0000000000000000    0.5000000000000000    0.2500000000000000     I0003
    0.0000000000000000    0.5000000000000000    0.7500000000000000     I0004
    0.5000000000000000    0.0000000000000000    0.2500000000000000     I0005
    0.5000000000000000    0.0000000000000000    0.7500000000000000     I0006
    0.5000000000000000    0.5000000000000000    0.2500000000000000     I0007
    0.5000000000000000    0.5000000000000000    0.7500000000000000     I0008
    0.0000000000000000    0.2500000000000000    0.0000000000000000     I0009
    0.0000000000000000    0.2500000000000000    0.5000000000000000     I0010
    0.0000000000000000    0.7500000000000000    0.0000000000000000     I0011
    0.0000000000000000    0.7500000000000000    0.5000000000000000     I0012
    0.5000000000000000    0.2500000000000000    0.0000000000000000     I0013
    0.5000000000000000    0.2500000000000000    0.5000000000000000     I0014
    0.5000000000000000    0.7500000000000000    0.0000000000000000     I0015
    0.5000000000000000    0.7500000000000000    0.5000000000000000     I0016
    0.2500000000000000    0.0000000000000000    0.0000000000000000     I0017
    0.2500000000000000    0.0000000000000000    0.5000000000000000     I0018
    0.2500000000000000    0.5000000000000000    0.0000000000000000     I0019
    0.2500000000000000    0.5000000000000000    0.5000000000000000     I0020
    0.7500000000000000    0.0000000000000000    0.0000000000000000     I0021
    0.7500000000000000    0.0000000000000000    0.5000000000000000     I0022
    0.7500000000000000    0.5000000000000000    0.0000000000000000     I0023
    0.7500000000000000    0.5000000000000000    0.5000000000000000     I0024
