 POSCAR\(1\1\1)                         
   1.00000000000000     
     5.6283001900000000    0.0000000000000000    0.0000000000000000
    -2.8141500950000000    4.8742509446000000    0.0000000000000000
     0.0000000000000000    0.0000000000000000   21.1909008026000016
   Pt   H 
    20     1
Selective dynamics
Direct
  0.3333300099999974  0.6666700179999978  0.0471899980000003   F   F   F
  0.0000000000000000  0.0000000000000000  0.1556199919999983   F   F   F
  0.6666611849837558  0.3333388030162432  0.2631049137220628   T   T   T
  0.3332657457948084  0.6667342722051930  0.3706042292919434   T   T   T
  0.0000124155640461 -0.0000124515640419  0.4802825759600162   T   T   T
  0.3333300099999974  0.1666699749999978  0.0471899980000003   F   F   F
  0.9999999970000033  0.4999999939999995  0.1556199919999983   F   F   F
  0.6666612440781710  0.8333291923143676  0.2631049146472535   T   T   T
  0.3332657824716938  0.1665232185564162  0.3706042373799604   T   T   T
  0.0000124353687552  0.5000298205100648  0.4802825728442330   T   T   T
  0.8333300950000009  0.1666699749999978  0.0471899980000003   F   F   F
  0.4999999970000033  0.4999999939999995  0.1556199919999983   F   F   F
  0.1666643884409820  0.8333356275590194  0.2630079450835797   T   T   T
  0.8333361049146436  0.1666639060853538  0.3706604085082290   T   T   T
  0.4999981326062511  0.5000018753937496  0.4722473854042235   T   T   T
  0.8333299680000010  0.6666700179999978  0.0471899980000003   F   F   F
  0.5000000000000000  0.0000000000000000  0.1556199919999983   F   F   F
  0.1666708036856322  0.3333388169218305  0.2631049146472535   T   T   T
  0.8334766964435804  0.6667342475283086  0.3706042373799604   T   T   T
  0.4999701724899310 -0.0000124573687499  0.4802825728442330   T   T   T
  0.5000002507774128  0.7559997402225901  0.5392637587844257   T   T   T
 

