Parameters to Generate KPOINTS (Do NOT Edit This Line):    0.0400    10     2     6
    22
Reciprocal lattice
    0.00000000000000    0.00000000000000    0.00000000000000     1
    0.25000000000000    0.00000000000000    0.00000000000000     6
    0.50000000000000    0.00000000000000    0.00000000000000     3
    0.25000000000000    0.25000000000000    0.00000000000000    12
    0.50000000000000    0.25000000000000    0.00000000000000    12
    0.50000000000000    0.50000000000000    0.00000000000000     3
    0.25000000000000    0.25000000000000    0.25000000000000     8
    0.50000000000000    0.25000000000000    0.25000000000000    12
    0.50000000000000    0.50000000000000    0.25000000000000     6
    0.50000000000000    0.50000000000000    0.50000000000000     1
    0.50000000000000    0.50000000000000    0.50000000000000     0
    0.49706115136407    0.49706115136407    0.49706115136407     0
    0.49412230272815    0.49412230272815    0.49412230272815     0
    0.49118345409222    0.49118345409222    0.49118345409222     0
    0.48824460545630    0.48824460545630    0.48824460545630     0
    0.48530575682037    0.48530575682037    0.48530575682037     0
    0.50000000000000    0.50000000000000    0.50000000000000     0
    0.49640066020535    0.50000000000000    0.49640066020535     0
    0.49280132041071    0.50000000000000    0.49280132041071     0
    0.48920198061606    0.50000000000000    0.48920198061606     0
    0.48560264082142    0.50000000000000    0.48560264082142     0
    0.48200330102677    0.50000000000000    0.48200330102677     0
