 POSCAR\(1\1\1)
   1.000
    5.6283001900000000    0.0000000000000000    0.0000000000000000
   -2.8141500950000000    4.8742509446000000    0.0000000000000000
    0.0000000000000000    0.0000000000000000   21.1909008026000016
   Pt   H 
   20    1
Selective Dynamics
Cartesian
   -0.0000281358726584    3.2495169649729885    0.9999985664928989    F  F  F
    0.0000000000000000    0.0000000000000000    3.2977278133733696    F  F  F
    2.8131054924998238    1.6253533774073201    5.5906398573523202    F  F  F
    0.0034615233799367    3.2475021767691623    7.8717505645540209    F  F  F
    0.0030037880571060   -0.0017343548253447   10.1721254279609976    F  F  F
    1.4070470326357958    0.8123912830801977    0.9999985664928989    F  F  F
    4.2212251425000202    2.4371254430544917    3.2977278133733696    F  F  F
    1.4070808061878184    4.0606590076317728    5.5906402728027995    F  F  F
    1.4070828970465690    0.8163579713975689    7.8717498906932155    F  F  F
   -1.4070712571244632    2.4405870221329935   10.1721247652515547    F  F  F
    4.2211976060413310    0.8123912830801977    0.9999985664928989    F  F  F
    1.4070750475000200    2.4371254430544917    3.2977278133733696    F  F  F
   -1.4070694888836519    4.0618726298900372    5.5491629045979263    F  F  F
    4.2212328715372456    0.8123707308160976    7.8645021500713534    F  F  F
    1.4070783823886559    2.4371235728971450   10.2959422272280872    F  F  F
    2.8141217227387543    3.2495169649729885    0.9999985664928989    F  F  F
    2.8141500950000000    0.0000000000000000    3.2977278133733696    F  F  F
    0.0010564471555841    1.6253540147934862    5.5906402728027995    F  F  F
    2.8107042388716184    3.2475025710720171    7.8717498906932155    F  F  F
    2.8111542226090545   -0.0017341647114958   10.1721247652515547    F  F  F
    1.4070765345333525    2.4371245845153986   11.8545372529636861    T  T  T
