0.030   5   5   5   10  0.030  122    6   16   16   23   28   23   16           # Parameters to Generate KPOINTS (Do NOT Edit This Line)
   132
Reciprocal lattice
    0.00000000000000    0.00000000000000    0.00000000000000     1
    0.20000000000000    0.00000000000000    0.00000000000000     6
    0.40000000000000    0.00000000000000    0.00000000000000     6
    0.20000000000000    0.20000000000000    0.00000000000000    12
    0.40000000000000    0.20000000000000    0.00000000000000    24
    0.40000000000000    0.40000000000000    0.00000000000000    12
    0.20000000000000    0.20000000000000    0.20000000000000     8
    0.40000000000000    0.20000000000000    0.20000000000000    24
    0.40000000000000    0.40000000000000    0.20000000000000    24
    0.40000000000000    0.40000000000000    0.40000000000000     8
    0.00000000000000    0.00000000000000    0.00000000000000     0
    0.00000000000000    0.03333333333333    0.00000000000000     0
    0.00000000000000    0.06666666666667    0.00000000000000     0
    0.00000000000000    0.10000000000000    0.00000000000000     0
    0.00000000000000    0.13333333333333    0.00000000000000     0
    0.00000000000000    0.16666666666667    0.00000000000000     0
    0.00000000000000    0.20000000000000    0.00000000000000     0
    0.00000000000000    0.23333333333333    0.00000000000000     0
    0.00000000000000    0.26666666666667    0.00000000000000     0
    0.00000000000000    0.30000000000000    0.00000000000000     0
    0.00000000000000    0.33333333333333    0.00000000000000     0
    0.00000000000000    0.36666666666667    0.00000000000000     0
    0.00000000000000    0.40000000000000    0.00000000000000     0
    0.00000000000000    0.43333333333333    0.00000000000000     0
    0.00000000000000    0.46666666666667    0.00000000000000     0
    0.00000000000000    0.50000000000000    0.00000000000000     0
    0.00000000000000    0.50000000000000    0.00000000000000     0
    0.03333333333333    0.50000000000000    0.00000000000000     0
    0.06666666666667    0.50000000000000    0.00000000000000     0
    0.10000000000000    0.50000000000000    0.00000000000000     0
    0.13333333333333    0.50000000000000    0.00000000000000     0
    0.16666666666667    0.50000000000000    0.00000000000000     0
    0.20000000000000    0.50000000000000    0.00000000000000     0
    0.23333333333333    0.50000000000000    0.00000000000000     0
    0.26666666666667    0.50000000000000    0.00000000000000     0
    0.30000000000000    0.50000000000000    0.00000000000000     0
    0.33333333333333    0.50000000000000    0.00000000000000     0
    0.36666666666667    0.50000000000000    0.00000000000000     0
    0.40000000000000    0.50000000000000    0.00000000000000     0
    0.43333333333333    0.50000000000000    0.00000000000000     0
    0.46666666666667    0.50000000000000    0.00000000000000     0
    0.50000000000000    0.50000000000000    0.00000000000000     0
    0.50000000000000    0.50000000000000    0.00000000000000     0
    0.47727272727273    0.47727272727273    0.00000000000000     0
    0.45454545454545    0.45454545454545    0.00000000000000     0
    0.43181818181818    0.43181818181818    0.00000000000000     0
    0.40909090909091    0.40909090909091    0.00000000000000     0
    0.38636363636364    0.38636363636364    0.00000000000000     0
    0.36363636363636    0.36363636363636    0.00000000000000     0
    0.34090909090909    0.34090909090909    0.00000000000000     0
    0.31818181818182    0.31818181818182    0.00000000000000     0
    0.29545454545455    0.29545454545455    0.00000000000000     0
    0.27272727272727    0.27272727272727    0.00000000000000     0
    0.25000000000000    0.25000000000000    0.00000000000000     0
    0.22727272727273    0.22727272727273    0.00000000000000     0
    0.20454545454545    0.20454545454545    0.00000000000000     0
    0.18181818181818    0.18181818181818    0.00000000000000     0
    0.15909090909091    0.15909090909091    0.00000000000000     0
    0.13636363636364    0.13636363636364    0.00000000000000     0
    0.11363636363636    0.11363636363636    0.00000000000000     0
    0.09090909090909    0.09090909090909    0.00000000000000     0
    0.06818181818182    0.06818181818182    0.00000000000000     0
    0.04545454545455    0.04545454545455    0.00000000000000     0
    0.02272727272727    0.02272727272727    0.00000000000000     0
    0.00000000000000    0.00000000000000    0.00000000000000     0
    0.00000000000000    0.00000000000000    0.00000000000000     0
    0.01851851851852    0.01851851851852    0.01851851851852     0
    0.03703703703704    0.03703703703704    0.03703703703704     0
    0.05555555555556    0.05555555555556    0.05555555555556     0
    0.07407407407407    0.07407407407407    0.07407407407407     0
    0.09259259259259    0.09259259259259    0.09259259259259     0
    0.11111111111111    0.11111111111111    0.11111111111111     0
    0.12962962962963    0.12962962962963    0.12962962962963     0
    0.14814814814815    0.14814814814815    0.14814814814815     0
    0.16666666666667    0.16666666666667    0.16666666666667     0
    0.18518518518519    0.18518518518519    0.18518518518519     0
    0.20370370370370    0.20370370370370    0.20370370370370     0
    0.22222222222222    0.22222222222222    0.22222222222222     0
    0.24074074074074    0.24074074074074    0.24074074074074     0
    0.25925925925926    0.25925925925926    0.25925925925926     0
    0.27777777777778    0.27777777777778    0.27777777777778     0
    0.29629629629630    0.29629629629630    0.29629629629630     0
    0.31481481481481    0.31481481481481    0.31481481481481     0
    0.33333333333333    0.33333333333333    0.33333333333333     0
    0.35185185185185    0.35185185185185    0.35185185185185     0
    0.37037037037037    0.37037037037037    0.37037037037037     0
    0.38888888888889    0.38888888888889    0.38888888888889     0
    0.40740740740741    0.40740740740741    0.40740740740741     0
    0.42592592592593    0.42592592592593    0.42592592592593     0
    0.44444444444444    0.44444444444444    0.44444444444444     0
    0.46296296296296    0.46296296296296    0.46296296296296     0
    0.48148148148148    0.48148148148148    0.48148148148148     0
    0.50000000000000    0.50000000000000    0.50000000000000     0
    0.50000000000000    0.50000000000000    0.50000000000000     0
    0.47727272727273    0.50000000000000    0.47727272727273     0
    0.45454545454545    0.50000000000000    0.45454545454545     0
    0.43181818181818    0.50000000000000    0.43181818181818     0
    0.40909090909091    0.50000000000000    0.40909090909091     0
    0.38636363636364    0.50000000000000    0.38636363636364     0
    0.36363636363636    0.50000000000000    0.36363636363636     0
    0.34090909090909    0.50000000000000    0.34090909090909     0
    0.31818181818182    0.50000000000000    0.31818181818182     0
    0.29545454545455    0.50000000000000    0.29545454545455     0
    0.27272727272727    0.50000000000000    0.27272727272727     0
    0.25000000000000    0.50000000000000    0.25000000000000     0
    0.22727272727273    0.50000000000000    0.22727272727273     0
    0.20454545454545    0.50000000000000    0.20454545454545     0
    0.18181818181818    0.50000000000000    0.18181818181818     0
    0.15909090909091    0.50000000000000    0.15909090909091     0
    0.13636363636364    0.50000000000000    0.13636363636364     0
    0.11363636363636    0.50000000000000    0.11363636363636     0
    0.09090909090909    0.50000000000000    0.09090909090909     0
    0.06818181818182    0.50000000000000    0.06818181818182     0
    0.04545454545455    0.50000000000000    0.04545454545455     0
    0.02272727272727    0.50000000000000    0.02272727272727     0
    0.00000000000000    0.50000000000000    0.00000000000000     0
    0.50000000000000    0.50000000000000    0.50000000000000     0
    0.50000000000000    0.50000000000000    0.46666666666667     0
    0.50000000000000    0.50000000000000    0.43333333333333     0
    0.50000000000000    0.50000000000000    0.40000000000000     0
    0.50000000000000    0.50000000000000    0.36666666666667     0
    0.50000000000000    0.50000000000000    0.33333333333333     0
    0.50000000000000    0.50000000000000    0.30000000000000     0
    0.50000000000000    0.50000000000000    0.26666666666667     0
    0.50000000000000    0.50000000000000    0.23333333333333     0
    0.50000000000000    0.50000000000000    0.20000000000000     0
    0.50000000000000    0.50000000000000    0.16666666666667     0
    0.50000000000000    0.50000000000000    0.13333333333333     0
    0.50000000000000    0.50000000000000    0.10000000000000     0
    0.50000000000000    0.50000000000000    0.06666666666667     0
    0.50000000000000    0.50000000000000    0.03333333333333     0
    0.50000000000000    0.50000000000000    0.00000000000000     0
