 POSCAR\(1\1\1)
   1.000
    5.6283001900000000    0.0000000000000000    0.0000000000000000
   -2.8141500950000000    4.8742509446000000    0.0000000000000000
    0.0000000000000000    0.0000000000000000   21.1909008026000016
   Pt   H 
   20    1
Selective Dynamics
Cartesian
   -0.0000281358726499    3.2495169649729991    0.9999985664928924    F  F  F
    0.0000000000000000    0.0000000000000000    3.2977278133734060    F  F  F
    2.8141303087106819    1.6247616994921230    5.5752143886895338    T  T  T
    0.0000238386654547    3.2494869249644274    7.8543691540986424    T  T  T
    5.6282858884892164    0.0000081399990775   10.1781044042166275    T  T  T
    1.4070470326358042    0.8123912830802084    0.9999985664928924    F  F  F
   -1.4070750475000000    2.4371254430544944    3.2977278133734060    F  F  F
    1.4070556186077443    4.0618872644028912    5.5752143886895338    T  T  T
    1.4070990071739089    0.8123613600536596    7.8543691540986424    T  T  T
    4.2212109563693714    2.4371335489338151   10.1781044042166275    T  T  T
    4.2211976060413203    0.8123912830802084    0.9999985664928924    F  F  F
    1.4070750475000000    2.4371254430544944    3.2977278133734060    F  F  F
   -1.4070948366034681    4.0618872644028912    5.5752143886895338    T  T  T
    4.2212491021739087    0.8123613600536596    7.8543691540986424    T  T  T
    1.4070611033862794    2.4371335489338151   10.1781044042166275    T  T  T
    2.8141217227387418    3.2495169649729991    0.9999985664928924    F  F  F
    2.8141500950000000    0.0000000000000000    3.2977278133734060    F  F  F
   -0.0000198482006200    1.6247616994921230    5.5752143886895338    T  T  T
    2.8141734608882389    3.2494869249644274    7.8543691540986424    T  T  T
    2.8141360298778251    0.0000081399990775   10.1781044042166275    T  T  T
    1.4070750475000000    2.4371254430544944   11.2511763658329600    T  T  T
