Generated by VASPKIT code
 1.000000
    3.9461682059926155    0.0098654205149815    0.0098654205149815
    0.0098654205149815    3.9461682059926155    0.0098654205149815
    0.0098654205149815    0.0098654205149815    3.9461682059926155
      Pt
       4
Direct
    0.0000000000000000    0.0000000000000000    0.0000000000000000    Pt0001
    0.0000000000000000    0.5000000000000000    0.5000000000000000    Pt0002
    0.5000000000000000    0.0000000000000000    0.5000000000000000    Pt0003
    0.5000000000000000    0.5000000000000000    0.0000000000000000    Pt0004
