K-Spacing Value to Generate K-Mesh: 0.010
0
Gamma
  16  16  16
0.0  0.0  0.0
