Generated by VASPKIT code
 1.000000
    6.3965781449068473    0.0000000000000000    0.0000000000000000
    0.0000000000000004    6.3965781449068473    0.0000000000000000
    0.0000000000000004    0.0000000000000004    6.3965781449068473
      Cs      Pb      I 
       1       1       3
Direct
    0.5000000000000000    0.5000000000000000    0.5000000000000000    Cs0001
    0.0000000000000000    0.0000000000000000    0.0000000000000000    Pb0001
    0.0000000000000000    0.0000000000000000    0.5000000000000000     I0001
    0.0000000000000000    0.5000000000000000    0.0000000000000000     I0002
    0.5000000000000000    0.0000000000000000    0.0000000000000000     I0003
